
(set-logic ALL) 

(declare-datatype MyList ((Nil) (Cons (head Real) (tail MyList)) )) 
(declare-fun l0 () MyList) 
(declare-fun l1 () MyList) 
(declare-fun l2 () MyList) 
(declare-fun l3 () MyList) 
(declare-fun i0 () Real) 
(declare-fun i1 () Real) 
(assert (is-Nil Nil) )
(assert (or (= l1 l2) (= l3 l0)) )
(assert (and (= l0 Nil) (= l2 l0) (= l3 Nil) (= l3 Nil)) )
(assert (not (= l3 l2)) )
(assert (is-Cons Nil) )
(assert (is-Nil l0) )
(assert (is-Cons Nil) )
(assert (not (= l0 Nil)) )
(check-sat)
